(set-info :smt-lib-version 2.6)
(set-logic QF_UFLIA)
(set-info :source | MathSat group |)
(set-info :category "industrial")
(set-info :status unsat)
(declare-fun fmt1 () Int)
(declare-fun fmt0 () Int)
(declare-fun arg1 () Int)
(declare-fun arg0 () Int)
(declare-fun fmt_length () Int)
(declare-fun distance () Int)
(declare-fun adr_hi () Int)
(declare-fun adr_medhi () Int)
(declare-fun adr_medlo () Int)
(declare-fun adr_lo () Int)
(declare-fun select_format (Int) Int)
(declare-fun percent () Int)
(declare-fun s () Int)
(declare-fun s_count (Int) Int)
(declare-fun x () Int)
(declare-fun x_count (Int) Int)
(assert (let ((?v_37 (+ fmt0 1)) (?v_0 (+ arg0 distance)) (?v_1 (- (- fmt1 2) fmt0)) (?v_2 (select_format 0))) (let ((?v_8 (= ?v_2 percent)) (?v_3 (select_format 1))) (let ((?v_11 (= ?v_3 percent)) (?v_9 (= ?v_3 s)) (?v_25 (= ?v_3 x)) (?v_4 (select_format 2))) (let ((?v_14 (= ?v_4 percent)) (?v_12 (= ?v_4 s)) (?v_27 (= ?v_4 x)) (?v_5 (select_format 3))) (let ((?v_17 (= ?v_5 percent)) (?v_15 (= ?v_5 s)) (?v_29 (= ?v_5 x)) (?v_6 (select_format 4))) (let ((?v_20 (= ?v_6 percent)) (?v_18 (= ?v_6 s)) (?v_31 (= ?v_6 x)) (?v_7 (select_format 5))) (let ((?v_23 (= ?v_7 percent)) (?v_21 (= ?v_7 s)) (?v_33 (= ?v_7 x)) (?v_10 (s_count 0)) (?v_13 (s_count 1)) (?v_16 (s_count 2)) (?v_19 (s_count 3)) (?v_22 (s_count 4)) (?v_35 (select_format 6)) (?v_24 (s_count 5)) (?v_26 (x_count 0)) (?v_28 (x_count 1)) (?v_30 (x_count 2)) (?v_32 (x_count 3)) (?v_34 (x_count 4)) (?v_36 (x_count 5)) (?v_38 (+ fmt0 0)) (?v_39 (+ fmt0 2))) (and (and (and (and (and (and (and (and (and (and (and (and (and (= distance 14) (= fmt_length 6)) (= adr_lo 3)) (= adr_medlo 1)) (= adr_medhi 5)) (= adr_hi 2)) (= percent 37)) (= s 115)) (= x 120)) (and (and (and (and (and (and (and (= fmt0 0) (= arg0 (- fmt0 distance))) (>= arg1 fmt0)) (< fmt1 (- (+ fmt0 fmt_length) 1))) (> fmt1 ?v_37)) (>= arg1 ?v_0)) (< arg1 (- (+ ?v_0 fmt_length) 4))) (= arg1 (+ (+ arg0 (* 4 (s_count ?v_1))) (* 4 (x_count ?v_1)))))) (or (or (or (or (or (or (or (or (or (or (or (or (or (or (or (or (or (or (or (or (or (or (or (or (or (or (or (or (or (or (or (or (or (or (or (or (or (or (or (or (or (or (or (or (or (or (or ?v_8 (= ?v_2 s)) (= ?v_2 x)) (= ?v_2 adr_lo)) (= ?v_2 adr_medlo)) (= ?v_2 adr_medhi)) (= ?v_2 adr_hi)) (= ?v_2 255)) ?v_11) ?v_9) ?v_25) (= ?v_3 adr_lo)) (= ?v_3 adr_medlo)) (= ?v_3 adr_medhi)) (= ?v_3 adr_hi)) (= ?v_3 255)) ?v_14) ?v_12) ?v_27) (= ?v_4 adr_lo)) (= ?v_4 adr_medlo)) (= ?v_4 adr_medhi)) (= ?v_4 adr_hi)) (= ?v_4 255)) ?v_17) ?v_15) ?v_29) (= ?v_5 adr_lo)) (= ?v_5 adr_medlo)) (= ?v_5 adr_medhi)) (= ?v_5 adr_hi)) (= ?v_5 255)) ?v_20) ?v_18) ?v_31) (= ?v_6 adr_lo)) (= ?v_6 adr_medlo)) (= ?v_6 adr_medhi)) (= ?v_6 adr_hi)) (= ?v_6 255)) ?v_23) ?v_21) ?v_33) (= ?v_7 adr_lo)) (= ?v_7 adr_medlo)) (= ?v_7 adr_medhi)) (= ?v_7 adr_hi)) (= ?v_7 255))) (and (and (and (and (and (and (and (and (and (and (and (ite (and ?v_8 ?v_9) (= ?v_10 1) (= ?v_10 0)) (ite (and ?v_11 ?v_12) (= ?v_13 (+ ?v_10 1)) (= ?v_13 ?v_10))) (ite (and ?v_14 ?v_15) (= ?v_16 (+ ?v_13 1)) (= ?v_16 ?v_13))) (ite (and ?v_17 ?v_18) (= ?v_19 (+ ?v_16 1)) (= ?v_19 ?v_16))) (ite (and ?v_20 ?v_21) (= ?v_22 (+ ?v_19 1)) (= ?v_22 ?v_19))) (ite (and ?v_23 (= ?v_35 s)) (= ?v_24 (+ ?v_22 1)) (= ?v_24 ?v_22))) (ite (and ?v_8 ?v_25) (= ?v_26 1) (= ?v_26 0))) (ite (and ?v_11 ?v_27) (= ?v_28 (+ ?v_26 1)) (= ?v_28 ?v_26))) (ite (and ?v_14 ?v_29) (= ?v_30 (+ ?v_28 1)) (= ?v_30 ?v_28))) (ite (and ?v_17 ?v_31) (= ?v_32 (+ ?v_30 1)) (= ?v_32 ?v_30))) (ite (and ?v_20 ?v_33) (= ?v_34 (+ ?v_32 1)) (= ?v_34 ?v_32))) (ite (and ?v_23 (= ?v_35 x)) (= ?v_36 (+ ?v_34 1)) (= ?v_36 ?v_34)))) (and (or (or (or (or (or (= fmt1 ?v_38) (= fmt1 ?v_37)) (= fmt1 ?v_39)) (= fmt1 (+ fmt0 3))) (= fmt1 (+ fmt0 4))) (= fmt1 (+ fmt0 5))) (or (or (= arg1 ?v_38) (= arg1 ?v_37)) (= arg1 ?v_39)))) (not (and (and (and (and (and (= (select_format fmt1) percent) (= (select_format (+ fmt1 1)) s)) (= (select_format arg1) adr_lo)) (= (select_format (+ arg1 1)) adr_medlo)) (= (select_format (+ arg1 2)) adr_medhi)) (= (select_format (+ arg1 3)) adr_hi))))))))))))
(check-sat)
(exit)
